39 1000
8 192
7 193
9 111
11 152
9 135
4 159
6 183
8 192
10 183
10 183
6 183
10 121
10 118
7 173
2 164
9 108
2 131
4 134
10 160
8 191
9 131
11 120
7 171
9 118
2 120
2 164
9 160
8 191
3 111
7 173
2 20
7 159
2 134
7 152
10 193
4 121
11 108
5 135
11 171
